T = 150;
V = 10;
Q = 15;
L = 5;
C = 2;
P = 10;
time = [|  0,  4,  0,  4,  7,  0, 29,  0, 29, 27,  7,  0, 29,  0, 29,  7, 27,  7,  4, 29, 18, 18, 18, 18, 18, 18, 18, 18, 18, 18, 18, 18, 18, 18, 18, 18, 18, 18, 18, 18,
        |  4,  0,  4,  0, 10,  4, 29,  4, 29, 24, 10,  4, 29,  4, 29, 10, 24, 10,  0, 29, 17, 17, 17, 17, 17, 17, 17, 17, 17, 17, 17, 17, 17, 17, 17, 17, 17, 17, 17, 17,
        |  0,  4,  0,  4,  7,  0, 29,  0, 29, 27,  7,  0, 29,  0, 29,  7, 27,  7,  4, 29, 18, 18, 18, 18, 18, 18, 18, 18, 18, 18, 18, 18, 18, 18, 18, 18, 18, 18, 18, 18,
        |  4,  0,  4,  0, 10,  4, 29,  4, 29, 24, 10,  4, 29,  4, 29, 10, 24, 10,  0, 29, 17, 17, 17, 17, 17, 17, 17, 17, 17, 17, 17, 17, 17, 17, 17, 17, 17, 17, 17, 17,
        |  7, 10,  7, 10,  0,  7, 28,  7, 28, 32,  0,  7, 28,  7, 28,  0, 32,  0, 10, 28, 17, 17, 17, 17, 17, 17, 17, 17, 17, 17, 17, 17, 17, 17, 17, 17, 17, 17, 17, 17,
        |  0,  4,  0,  4,  7,  0, 29,  0, 29, 27,  7,  0, 29,  0, 29,  7, 27,  7,  4, 29, 18, 18, 18, 18, 18, 18, 18, 18, 18, 18, 18, 18, 18, 18, 18, 18, 18, 18, 18, 18,
        | 29, 29, 29, 29, 28, 29,  0, 29,  0, 27, 28, 29,  0, 29,  0, 28, 27, 28, 29,  0, 12, 12, 12, 12, 12, 12, 12, 12, 12, 12, 12, 12, 12, 12, 12, 12, 12, 12, 12, 12,
        |  0,  4,  0,  4,  7,  0, 29,  0, 29, 27,  7,  0, 29,  0, 29,  7, 27,  7,  4, 29, 18, 18, 18, 18, 18, 18, 18, 18, 18, 18, 18, 18, 18, 18, 18, 18, 18, 18, 18, 18,
        | 29, 29, 29, 29, 28, 29,  0, 29,  0, 27, 28, 29,  0, 29,  0, 28, 27, 28, 29,  0, 12, 12, 12, 12, 12, 12, 12, 12, 12, 12, 12, 12, 12, 12, 12, 12, 12, 12, 12, 12,
        | 27, 24, 27, 24, 32, 27, 27, 27, 27,  0, 32, 27, 27, 27, 27, 32,  0, 32, 24, 27, 22, 22, 22, 22, 22, 22, 22, 22, 22, 22, 22, 22, 22, 22, 22, 22, 22, 22, 22, 22,
        |  7, 10,  7, 10,  0,  7, 28,  7, 28, 32,  0,  7, 28,  7, 28,  0, 32,  0, 10, 28, 17, 17, 17, 17, 17, 17, 17, 17, 17, 17, 17, 17, 17, 17, 17, 17, 17, 17, 17, 17,
        |  0,  4,  0,  4,  7,  0, 29,  0, 29, 27,  7,  0, 29,  0, 29,  7, 27,  7,  4, 29, 18, 18, 18, 18, 18, 18, 18, 18, 18, 18, 18, 18, 18, 18, 18, 18, 18, 18, 18, 18,
        | 29, 29, 29, 29, 28, 29,  0, 29,  0, 27, 28, 29,  0, 29,  0, 28, 27, 28, 29,  0, 12, 12, 12, 12, 12, 12, 12, 12, 12, 12, 12, 12, 12, 12, 12, 12, 12, 12, 12, 12,
        |  0,  4,  0,  4,  7,  0, 29,  0, 29, 27,  7,  0, 29,  0, 29,  7, 27,  7,  4, 29, 18, 18, 18, 18, 18, 18, 18, 18, 18, 18, 18, 18, 18, 18, 18, 18, 18, 18, 18, 18,
        | 29, 29, 29, 29, 28, 29,  0, 29,  0, 27, 28, 29,  0, 29,  0, 28, 27, 28, 29,  0, 12, 12, 12, 12, 12, 12, 12, 12, 12, 12, 12, 12, 12, 12, 12, 12, 12, 12, 12, 12,
        |  7, 10,  7, 10,  0,  7, 28,  7, 28, 32,  0,  7, 28,  7, 28,  0, 32,  0, 10, 28, 17, 17, 17, 17, 17, 17, 17, 17, 17, 17, 17, 17, 17, 17, 17, 17, 17, 17, 17, 17,
        | 27, 24, 27, 24, 32, 27, 27, 27, 27,  0, 32, 27, 27, 27, 27, 32,  0, 32, 24, 27, 22, 22, 22, 22, 22, 22, 22, 22, 22, 22, 22, 22, 22, 22, 22, 22, 22, 22, 22, 22,
        |  7, 10,  7, 10,  0,  7, 28,  7, 28, 32,  0,  7, 28,  7, 28,  0, 32,  0, 10, 28, 17, 17, 17, 17, 17, 17, 17, 17, 17, 17, 17, 17, 17, 17, 17, 17, 17, 17, 17, 17,
        |  4,  0,  4,  0, 10,  4, 29,  4, 29, 24, 10,  4, 29,  4, 29, 10, 24, 10,  0, 29, 17, 17, 17, 17, 17, 17, 17, 17, 17, 17, 17, 17, 17, 17, 17, 17, 17, 17, 17, 17,
        | 29, 29, 29, 29, 28, 29,  0, 29,  0, 27, 28, 29,  0, 29,  0, 28, 27, 28, 29,  0, 12, 12, 12, 12, 12, 12, 12, 12, 12, 12, 12, 12, 12, 12, 12, 12, 12, 12, 12, 12,
        | 18, 17, 18, 17, 17, 18, 12, 18, 12, 22, 17, 18, 12, 18, 12, 17, 22, 17, 17, 12,  0,  0,  0,  0,  0,  0,  0,  0,  0,  0,  0,  0,  0,  0,  0,  0,  0,  0,  0,  0,
        | 18, 17, 18, 17, 17, 18, 12, 18, 12, 22, 17, 18, 12, 18, 12, 17, 22, 17, 17, 12,  0,  0,  0,  0,  0,  0,  0,  0,  0,  0,  0,  0,  0,  0,  0,  0,  0,  0,  0,  0,
        | 18, 17, 18, 17, 17, 18, 12, 18, 12, 22, 17, 18, 12, 18, 12, 17, 22, 17, 17, 12,  0,  0,  0,  0,  0,  0,  0,  0,  0,  0,  0,  0,  0,  0,  0,  0,  0,  0,  0,  0,
        | 18, 17, 18, 17, 17, 18, 12, 18, 12, 22, 17, 18, 12, 18, 12, 17, 22, 17, 17, 12,  0,  0,  0,  0,  0,  0,  0,  0,  0,  0,  0,  0,  0,  0,  0,  0,  0,  0,  0,  0,
        | 18, 17, 18, 17, 17, 18, 12, 18, 12, 22, 17, 18, 12, 18, 12, 17, 22, 17, 17, 12,  0,  0,  0,  0,  0,  0,  0,  0,  0,  0,  0,  0,  0,  0,  0,  0,  0,  0,  0,  0,
        | 18, 17, 18, 17, 17, 18, 12, 18, 12, 22, 17, 18, 12, 18, 12, 17, 22, 17, 17, 12,  0,  0,  0,  0,  0,  0,  0,  0,  0,  0,  0,  0,  0,  0,  0,  0,  0,  0,  0,  0,
        | 18, 17, 18, 17, 17, 18, 12, 18, 12, 22, 17, 18, 12, 18, 12, 17, 22, 17, 17, 12,  0,  0,  0,  0,  0,  0,  0,  0,  0,  0,  0,  0,  0,  0,  0,  0,  0,  0,  0,  0,
        | 18, 17, 18, 17, 17, 18, 12, 18, 12, 22, 17, 18, 12, 18, 12, 17, 22, 17, 17, 12,  0,  0,  0,  0,  0,  0,  0,  0,  0,  0,  0,  0,  0,  0,  0,  0,  0,  0,  0,  0,
        | 18, 17, 18, 17, 17, 18, 12, 18, 12, 22, 17, 18, 12, 18, 12, 17, 22, 17, 17, 12,  0,  0,  0,  0,  0,  0,  0,  0,  0,  0,  0,  0,  0,  0,  0,  0,  0,  0,  0,  0,
        | 18, 17, 18, 17, 17, 18, 12, 18, 12, 22, 17, 18, 12, 18, 12, 17, 22, 17, 17, 12,  0,  0,  0,  0,  0,  0,  0,  0,  0,  0,  0,  0,  0,  0,  0,  0,  0,  0,  0,  0,
        | 18, 17, 18, 17, 17, 18, 12, 18, 12, 22, 17, 18, 12, 18, 12, 17, 22, 17, 17, 12,  0,  0,  0,  0,  0,  0,  0,  0,  0,  0,  0,  0,  0,  0,  0,  0,  0,  0,  0,  0,
        | 18, 17, 18, 17, 17, 18, 12, 18, 12, 22, 17, 18, 12, 18, 12, 17, 22, 17, 17, 12,  0,  0,  0,  0,  0,  0,  0,  0,  0,  0,  0,  0,  0,  0,  0,  0,  0,  0,  0,  0,
        | 18, 17, 18, 17, 17, 18, 12, 18, 12, 22, 17, 18, 12, 18, 12, 17, 22, 17, 17, 12,  0,  0,  0,  0,  0,  0,  0,  0,  0,  0,  0,  0,  0,  0,  0,  0,  0,  0,  0,  0,
        | 18, 17, 18, 17, 17, 18, 12, 18, 12, 22, 17, 18, 12, 18, 12, 17, 22, 17, 17, 12,  0,  0,  0,  0,  0,  0,  0,  0,  0,  0,  0,  0,  0,  0,  0,  0,  0,  0,  0,  0,
        | 18, 17, 18, 17, 17, 18, 12, 18, 12, 22, 17, 18, 12, 18, 12, 17, 22, 17, 17, 12,  0,  0,  0,  0,  0,  0,  0,  0,  0,  0,  0,  0,  0,  0,  0,  0,  0,  0,  0,  0,
        | 18, 17, 18, 17, 17, 18, 12, 18, 12, 22, 17, 18, 12, 18, 12, 17, 22, 17, 17, 12,  0,  0,  0,  0,  0,  0,  0,  0,  0,  0,  0,  0,  0,  0,  0,  0,  0,  0,  0,  0,
        | 18, 17, 18, 17, 17, 18, 12, 18, 12, 22, 17, 18, 12, 18, 12, 17, 22, 17, 17, 12,  0,  0,  0,  0,  0,  0,  0,  0,  0,  0,  0,  0,  0,  0,  0,  0,  0,  0,  0,  0,
        | 18, 17, 18, 17, 17, 18, 12, 18, 12, 22, 17, 18, 12, 18, 12, 17, 22, 17, 17, 12,  0,  0,  0,  0,  0,  0,  0,  0,  0,  0,  0,  0,  0,  0,  0,  0,  0,  0,  0,  0,
        | 18, 17, 18, 17, 17, 18, 12, 18, 12, 22, 17, 18, 12, 18, 12, 17, 22, 17, 17, 12,  0,  0,  0,  0,  0,  0,  0,  0,  0,  0,  0,  0,  0,  0,  0,  0,  0,  0,  0,  0,
        | 18, 17, 18, 17, 17, 18, 12, 18, 12, 22, 17, 18, 12, 18, 12, 17, 22, 17, 17, 12,  0,  0,  0,  0,  0,  0,  0,  0,  0,  0,  0,  0,  0,  0,  0,  0,  0,  0,  0,  0|];
l =     [  1,  3,  1,  3,  5,  1,  2,  1,  2,  4,  5,  1,  2,  1,  2,  5,  4,  5,  3,  2];
a =     [ 18, 24, 18, 17, 17, 31, 22, 47, 18, 22, 39, 41, 63, 38, 63, 52, 64, 72, 57, 64];
b =     [ 52, 46, 33, 50, 33, 56, 48, 73, 48, 38, 93, 89,121,101,120, 94,112,112,105,119];
s =     [ 14, 13, 16, 17, 18, 14, 15, 18, 10, 15, 14, 13, 16, 17, 18, 14, 15, 18, 10, 15];
q =     [  1,  3,  3,  4,  4,  2,  1,  2,  2,  1, -1, -3, -3, -4, -4, -2, -1, -2, -2, -1];
